QBPP_HJ+_25_025_10_5
25 128 286
26 8 14 13 50 7 43 8 34 17 18 42 13 6 14 22 45 42 10 30 20 27 38 42 47
   0  71   0   0   0   0   0  85   0   0   0   0   0   0  86   0  57   0   0  85   0   0  58  24   0
  71   0   0   0   0   0  13   0   0   0  36   0   0   0   0  57   0   0   0  92   0   0   0   0  63
   0   0   0   0   0   0  46   0   0   0   0  99   0   0   0   0  91   0   0   0  92   0   0  44  94
   0   0   0   0   0   0   0  86  85  65   0   0  62  95   0   0   0  21   0  18   0   0   0   0  21
   0   0   0   0   0   0   0   0   0   0  65   0  31  52  87   0   0  79  99  59  17  30   0   0   0
   0   0   0   0   0   0   0   0   0   0   9   0   0   0  77  91  99   0  57   0   0  78   6   0   0
   0  13  46   0   0   0   0  53   0  68   0   8   0   0  90   0   0  95  75   0   0   0   0  45   0
  85   0   0  86   0   0  53   0   0   0   0   0   0   0   0   0   0   0  78  91   0   0   0  78   0
   0   0   0  85   0   0   0   0   0   0   0   0   0   0  69   0   0  58   0  70   0   0   0   0   5
   0   0   0  65   0   0  68   0   0   0   0   0  37   0   0   0   0   0  92   0   0   0   0   0   0
   0  36   0   0  65   9   0   0   0   0   0   0   0   0   0   0   0  63   0   0   0   0  11   0  49
   0   0  99   0   0   0   8   0   0   0   0   0   0  58   0   0   0   0   0   0  28   0   0   0   0
   0   0   0  62  31   0   0   0   0  37   0   0   0   0  33   0   0  58   0   0  56   0   0   0   0
   0   0   0  95  52   0   0   0   0   0   0  58   0   0   0   0   0  60   0   0   0   0   0   0   0
  86   0   0   0  87  77  90   0  69   0   0   0  33   0   0   0   0   0   0   0   0   0  26   0   0
   0  57   0   0   0  91   0   0   0   0   0   0   0   0   0   0   0   0   0   0  23   0   0   0   0
  57   0  91   0   0  99   0   0   0   0   0   0   0   0   0   0   0   0   0   0   0   0   0   0  35
   0   0   0  21  79   0  95   0  58   0  63   0  58  60   0   0   0   0   0  79   0   0   0   0   0
   0   0   0   0  99  57  75  78   0  92   0   0   0   0   0   0   0   0   0   0   0   0   0   0   0
  85  92   0  18  59   0   0  91  70   0   0   0   0   0   0   0   0  79   0   0   0   0   0   0  53
   0   0  92   0  17   0   0   0   0   0   0  28  56   0   0  23   0   0   0   0   0   0   0   0   0
   0   0   0   0  30  78   0   0   0   0   0   0   0   0   0   0   0   0   0   0   0   0   0   0  39
  58   0   0   0   0   6   0   0   0   0  11   0   0   0  26   0   0   0   0   0   0   0   0  18   0
  24   0  44   0   0   0  45  78   0   0   0   0   0   0   0   0   0   0   0   0   0   0  18   0   0
   0  63  94  21   0   0   0   0   5   0  49   0   0   0   0   0  35   0   0  53   0  39   0   0   0
